Gurobi Optimizer version 10.0.3 build v10.0.3rc0 (win64)

CPU model: 13th Gen Intel(R) Core(TM) i7-13700T, instruction set [SSE2|AVX|AVX2]
Thread count: 16 physical cores, 24 logical processors, using up to 24 threads

Optimize a model with 14927485 rows, 1178129 columns and 30411805 nonzeros
Model fingerprint: 0xc35b612c
Variable types: 0 continuous, 1178129 integer (208080 binary)
Coefficient statistics:
  Matrix range     [1e+00, 6e+02]
  Objective range  [7e+00, 3e+02]
  Bounds range     [1e+00, 1e+00]
  RHS range        [1e+00, 6e+02]
Presolve removed 274573 rows and 749939 columns (presolve time = 6s) ...
Presolve removed 467409 rows and 749946 columns (presolve time = 10s) ...
Presolve removed 467537 rows and 750075 columns (presolve time = 15s) ...
Presolve removed 467537 rows and 750075 columns (presolve time = 20s) ...
Presolve removed 467537 rows and 750075 columns (presolve time = 25s) ...
Presolve removed 467537 rows and 750075 columns (presolve time = 30s) ...
Presolve removed 467537 rows and 750075 columns (presolve time = 35s) ...
Presolve removed 467537 rows and 750075 columns (presolve time = 40s) ...
Presolve removed 467537 rows and 750075 columns (presolve time = 45s) ...
Presolve removed 467537 rows and 750075 columns (presolve time = 50s) ...
Presolve removed 467537 rows and 799952 columns (presolve time = 55s) ...
Presolve removed 2145646 rows and 799952 columns (presolve time = 60s) ...
Presolve removed 2146294 rows and 800272 columns (presolve time = 65s) ...
Presolve removed 2146294 rows and 800272 columns (presolve time = 70s) ...
Presolve removed 2146368 rows and 800272 columns (presolve time = 75s) ...
Presolve removed 2146368 rows and 800272 columns (presolve time = 80s) ...
Presolve removed 2146368 rows and 800272 columns (presolve time = 85s) ...
Presolve removed 2146368 rows and 800272 columns (presolve time = 90s) ...
Presolve removed 2613068 rows and 835982 columns (presolve time = 95s) ...
Presolve removed 3821187 rows and 850366 columns (presolve time = 100s) ...
Presolve removed 3821363 rows and 850366 columns (presolve time = 105s) ...
Presolve removed 3821363 rows and 850366 columns (presolve time = 110s) ...
Presolve removed 3821363 rows and 850366 columns (presolve time = 115s) ...
Presolve removed 3821363 rows and 850366 columns (presolve time = 120s) ...
Presolve removed 3861518 rows and 850366 columns (presolve time = 125s) ...
Presolve removed 4693860 rows and 850367 columns (presolve time = 130s) ...
Presolve removed 4755306 rows and 898316 columns (presolve time = 135s) ...
Presolve removed 4755306 rows and 898316 columns (presolve time = 140s) ...
Presolve removed 4757638 rows and 898316 columns (presolve time = 145s) ...
Presolve removed 4758181 rows and 898316 columns (presolve time = 150s) ...
Presolve removed 4758181 rows and 898316 columns (presolve time = 155s) ...
Presolve removed 5058495 rows and 898316 columns (presolve time = 160s) ...
Presolve removed 5108470 rows and 898316 columns (presolve time = 166s) ...
Presolve removed 5148599 rows and 898316 columns (presolve time = 170s) ...
Presolve removed 5196269 rows and 898316 columns (presolve time = 175s) ...
Presolve removed 5244603 rows and 898316 columns (presolve time = 180s) ...
Presolve removed 5291827 rows and 898316 columns (presolve time = 185s) ...
Presolve removed 5338505 rows and 898316 columns (presolve time = 190s) ...
Presolve removed 5383475 rows and 898316 columns (presolve time = 195s) ...
Presolve removed 5430114 rows and 898316 columns (presolve time = 200s) ...
Presolve removed 5475959 rows and 898316 columns (presolve time = 205s) ...
Presolve removed 5523822 rows and 898316 columns (presolve time = 210s) ...
Presolve removed 6393417 rows and 900365 columns (presolve time = 215s) ...
Presolve removed 6441231 rows and 948181 columns (presolve time = 220s) ...
Presolve removed 6456130 rows and 948181 columns (presolve time = 225s) ...
Presolve removed 6456130 rows and 948181 columns (presolve time = 230s) ...
Presolve removed 6459049 rows and 948181 columns (presolve time = 235s) ...
Presolve removed 6459745 rows and 948181 columns (presolve time = 240s) ...
Presolve removed 6459745 rows and 948181 columns (presolve time = 245s) ...
Presolve removed 6750219 rows and 948181 columns (presolve time = 250s) ...
Presolve removed 6785312 rows and 948181 columns (presolve time = 256s) ...
Presolve removed 6818429 rows and 948181 columns (presolve time = 261s) ...
Presolve removed 6852053 rows and 948181 columns (presolve time = 266s) ...
Presolve removed 6883843 rows and 948181 columns (presolve time = 271s) ...
Presolve removed 6912457 rows and 948181 columns (presolve time = 275s) ...
Presolve removed 6949430 rows and 948181 columns (presolve time = 281s) ...
Presolve removed 6980302 rows and 948181 columns (presolve time = 285s) ...
Presolve removed 7016356 rows and 948181 columns (presolve time = 291s) ...
Presolve removed 7050842 rows and 948181 columns (presolve time = 296s) ...
Presolve removed 7084105 rows and 948181 columns (presolve time = 301s) ...
Presolve removed 7117649 rows and 948181 columns (presolve time = 306s) ...
Presolve removed 7147365 rows and 948181 columns (presolve time = 310s) ...
Presolve removed 7185147 rows and 948181 columns (presolve time = 316s) ...
Presolve removed 7217064 rows and 948181 columns (presolve time = 321s) ...
Presolve removed 7248101 rows and 950253 columns (presolve time = 325s) ...
Presolve removed 8092281 rows and 950255 columns (presolve time = 330s) ...
Presolve removed 8156884 rows and 997989 columns (presolve time = 335s) ...
Presolve removed 8160195 rows and 997989 columns (presolve time = 340s) ...
Presolve removed 8161002 rows and 997989 columns (presolve time = 345s) ...
Presolve removed 8556610 rows and 997989 columns (presolve time = 350s) ...
Presolve removed 8936401 rows and 997989 columns (presolve time = 355s) ...
Presolve removed 9791050 rows and 1000081 columns (presolve time = 360s) ...
Presolve removed 9856837 rows and 1047719 columns (presolve time = 365s) ...
Presolve removed 9856837 rows and 1047719 columns (presolve time = 370s) ...
Presolve removed 9861778 rows and 1047719 columns (presolve time = 375s) ...
Presolve removed 10150901 rows and 1047719 columns (presolve time = 380s) ...
Presolve removed 10242670 rows and 1047719 columns (presolve time = 385s) ...
Presolve removed 10328681 rows and 1047719 columns (presolve time = 390s) ...
Presolve removed 10415696 rows and 1047719 columns (presolve time = 395s) ...
Presolve removed 10504030 rows and 1047719 columns (presolve time = 400s) ...
Presolve removed 10594920 rows and 1047719 columns (presolve time = 405s) ...
Presolve removed 11490428 rows and 1049836 columns (presolve time = 410s) ...
Presolve removed 11556983 rows and 1097387 columns (presolve time = 415s) ...
Presolve removed 11556983 rows and 1097387 columns (presolve time = 420s) ...
Presolve removed 11562495 rows and 1097387 columns (presolve time = 425s) ...
Presolve removed 11854181 rows and 1097387 columns (presolve time = 430s) ...
Presolve removed 11923579 rows and 1097387 columns (presolve time = 435s) ...
Presolve removed 11982894 rows and 1097387 columns (presolve time = 440s) ...
Presolve removed 12050597 rows and 1097387 columns (presolve time = 445s) ...
Presolve removed 12114799 rows and 1097387 columns (presolve time = 450s) ...
Presolve removed 12183583 rows and 1097387 columns (presolve time = 455s) ...
Presolve removed 12242020 rows and 1097387 columns (presolve time = 460s) ...
Presolve removed 12311681 rows and 1097387 columns (presolve time = 465s) ...
Presolve removed 13189420 rows and 1099528 columns (presolve time = 470s) ...
Presolve removed 13256598 rows and 1146940 columns (presolve time = 475s) ...
Presolve removed 13262639 rows and 1146940 columns (presolve time = 480s) ...
Presolve removed 13588075 rows and 1146940 columns (presolve time = 485s) ...
Presolve removed 13645074 rows and 1146940 columns (presolve time = 490s) ...
Presolve removed 13706224 rows and 1146940 columns (presolve time = 495s) ...
Presolve removed 13769982 rows and 1146940 columns (presolve time = 500s) ...
Presolve removed 13823208 rows and 1146940 columns (presolve time = 505s) ...
Presolve removed 13883469 rows and 1146940 columns (presolve time = 510s) ...
Presolve removed 13942068 rows and 1146940 columns (presolve time = 515s) ...
Presolve removed 14004415 rows and 1146940 columns (presolve time = 521s) ...
Presolve removed 14488386 rows and 1149131 columns (presolve time = 525s) ...
Presolve removed 14708230 rows and 1173198 columns (presolve time = 530s) ...
Presolve removed 14795361 rows and 1173198 columns (presolve time = 535s) ...
Presolve removed 14879650 rows and 1173198 columns (presolve time = 540s) ...
Presolve removed 14920114 rows and 1174721 columns (presolve time = 545s) ...
Presolve removed 14920269 rows and 1174763 columns
Presolve time: 546.01s
Presolved: 7216 rows, 3366 columns, 17112 nonzeros
Variable types: 0 continuous, 3366 integer (964 binary)
Found heuristic solution: objective 10695.190000
Found heuristic solution: objective 31780.950000

Root simplex log...

Iteration    Objective       Primal Inf.    Dual Inf.      Time
       0    1.0857704e+05   9.375000e+02   0.000000e+00    548s
    3209    7.7333827e+04   0.000000e+00   0.000000e+00    548s

Root relaxation: objective 7.733383e+04, 3209 iterations, 0.01 seconds (0.02 work units)

    Nodes    |    Current Node    |     Objective Bounds      |     Work
 Expl Unexpl |  Obj  Depth IntInf | Incumbent    BestBd   Gap | It/Node Time

     0     0 77333.8267    0  267 31780.9500 77333.8267   143%     -  548s
H    0     0                    69105.240000 77333.8267  11.9%     -  548s
H    0     0                    71693.830000 77333.8267  7.87%     -  548s
H    0     0                    73304.630000 77333.8267  5.50%     -  548s
H    0     0                    76151.680000 77333.8267  1.55%     -  548s
     0     0 76648.7086    0   49 76151.6800 76648.7086  0.65%     -  548s
H    0     0                    76408.680000 76648.7086  0.31%     -  548s
     0     0 76594.4691    0  147 76408.6800 76594.4691  0.24%     -  548s
H    0     0                    76428.680000 76594.4691  0.22%     -  548s
     0     0 76594.4691    0  117 76428.6800 76594.4691  0.22%     -  548s
H    0     0                    76448.680000 76594.4691  0.19%     -  548s
     0     0 76594.4691    0   53 76448.6800 76594.4691  0.19%     -  548s
H    0     0                    76459.680000 76594.4691  0.18%     -  548s
     0     0 76594.4691    0   69 76459.6800 76594.4691  0.18%     -  548s
     0     0 76588.1855    0  121 76459.6800 76588.1855  0.17%     -  548s
     0     0 76588.1855    0   20 76459.6800 76588.1855  0.17%     -  548s
     0     0 76588.1855    0   11 76459.6800 76588.1855  0.17%     -  548s
     0     0 76588.1855    0   12 76459.6800 76588.1855  0.17%     -  548s
     0     0 76575.3355    0   21 76459.6800 76575.3355  0.15%     -  548s
H    0     0                    76475.680000 76575.3355  0.13%     -  548s
     0     0 76563.9729    0   13 76475.6800 76563.9729  0.12%     -  548s

Cutting planes:
  Learned: 1
  Gomory: 1
  MIR: 6
  Flow cover: 1
  RLT: 1

Explored 1 nodes (5484 simplex iterations) in 549.17 seconds (268.00 work units)
Thread count was 24 (of 24 available processors)

Solution count 10: 76475.7 76459.7 76448.7 ... 31780.9

Optimal solution found (tolerance 1.00e-04)
Best objective 7.647568000000e+04, best bound 7.648084000000e+04, gap 0.0067%
Valor da função objetivo:  76475.68000000001

Tempo para criar o modelo:  116.20603966712952
